NAME : xqf131
COMMENT : Bonn VLSI data set with 131 points
COMMENT : Uni Bonn, Research Institute for Discrete Math
COMMENT : Contributed by Andre Rohe
TYPE : TSP
DIMENSION : 131
EDGE_WEIGHT_TYPE : EUC_2D
NODE_COORD_SECTION
1 23 27
2 12 4
3 30 21
4 6 27
5 14 20
6 17 3
7 11 3
EOF
